30
3 0 1
4 1 1
4 2 1
5 0 1
5 1 1
5 3 1
5 4 1
6 0 1
6 2 1
6 4 1
6 5 1
7 0 1
7 3 1
7 4 1
8 0 1
8 3 1
8 4 1
8 6 1
8 7 1
9 1 1
9 4 1
9 5 1
9 7 1
9 8 1
10 0 1
10 3 1
10 4 1
10 5 1
10 6 1
10 7 1
10 8 1
11 0 1
11 2 1
11 5 1
11 7 1
11 8 1
12 0 1
12 1 1
12 2 1
12 3 1
12 4 1
12 5 1
12 6 1
12 11 1
13 0 1
13 2 1
13 3 1
13 4 1
13 7 1
13 8 1
13 10 1
14 0 1
14 1 1
14 3 1
14 4 1
14 6 1
14 7 1
14 8 1
14 10 1
14 11 1
14 13 1
15 0 1
15 2 1
15 3 1
15 5 1
15 6 1
15 7 1
15 10 1
15 13 1
15 14 1
16 3 1
16 5 1
16 6 1
16 8 1
16 9 1
16 10 1
16 12 1
16 14 1
17 0 1
17 1 1
17 2 1
17 4 1
17 5 1
17 7 1
17 9 1
17 10 1
17 11 1
17 12 1
17 15 1
17 16 1
18 1 1
18 2 1
18 6 1
18 11 1
18 12 1
18 13 1
18 14 1
18 15 1
18 16 1
18 17 1
19 3 1
19 4 1
19 6 1
19 7 1
19 8 1
19 10 1
19 12 1
19 13 1
19 17 1
20 5 1
20 13 1
20 14 1
20 17 1
20 18 1
21 1 1
21 3 1
21 5 1
21 7 1
21 8 1
21 12 1
21 14 1
21 16 1
22 0 1
22 1 1
22 2 1
22 3 1
22 5 1
22 6 1
22 10 1
22 11 1
22 12 1
22 13 1
22 14 1
22 15 1
22 17 1
22 18 1
22 19 1
22 20 1
22 21 1
23 0 1
23 1 1
23 5 1
23 6 1
23 7 1
23 10 1
23 11 1
23 13 1
23 14 1
23 15 1
23 16 1
23 18 1
23 19 1
24 0 1
24 1 1
24 7 1
24 12 1
24 13 1
24 15 1
24 17 1
24 19 1
24 20 1
24 22 1
24 23 1
25 1 1
25 2 1
25 4 1
25 5 1
25 6 1
25 7 1
25 9 1
25 10 1
25 11 1
25 15 1
25 19 1
25 20 1
25 21 1
25 24 1
26 1 1
26 3 1
26 4 1
26 5 1
26 7 1
26 10 1
26 11 1
26 13 1
26 14 1
26 17 1
26 19 1
26 22 1
27 0 1
27 1 1
27 8 1
27 11 1
27 12 1
27 14 1
27 15 1
27 16 1
27 19 1
27 20 1
27 25 1
28 1 1
28 4 1
28 5 1
28 7 1
28 14 1
28 16 1
28 19 1
28 20 1
28 21 1
29 3 1
29 5 1
29 6 1
29 7 1
29 8 1
29 9 1
29 17 1
29 18 1
29 19 1
29 20 1
29 23 1
29 25 1
29 28 1
